(set-info :smt-lib-version 2.6)
(set-logic QF_UFLRA)
(set-info :source |
MathSat group

|)
(set-info :category "random")
(set-info :status sat)
(declare-fun x0 () Real)
(declare-fun x1 () Real)
(declare-fun x2 () Real)
(declare-fun x3 () Real)
(declare-fun x4 () Real)
(declare-fun x5 () Real)
(declare-fun x6 () Real)
(declare-fun x7 () Real)
(declare-fun x8 () Real)
(declare-fun x9 () Real)
(declare-fun x10 () Real)
(declare-fun x11 () Real)
(declare-fun x12 () Real)
(declare-fun x13 () Real)
(declare-fun x14 () Real)
(declare-fun x15 () Real)
(declare-fun x16 () Real)
(declare-fun x17 () Real)
(declare-fun x18 () Real)
(declare-fun x19 () Real)
(declare-fun x20 () Real)
(declare-fun x21 () Real)
(declare-fun x22 () Real)
(declare-fun x23 () Real)
(declare-fun x24 () Real)
(declare-fun x25 () Real)
(declare-fun x26 () Real)
(declare-fun x27 () Real)
(declare-fun x28 () Real)
(declare-fun x29 () Real)
(declare-fun f0_1 (Real) Real)
(declare-fun f0_2 (Real Real) Real)
(declare-fun f0_3 (Real Real Real) Real)
(declare-fun f0_4 (Real Real Real Real) Real)
(declare-fun P0 () Bool)
(declare-fun P1 () Bool)
(declare-fun P2 () Bool)
(declare-fun P3 () Bool)
(declare-fun P4 () Bool)
(declare-fun P5 () Bool)
(declare-fun P6 () Bool)
(declare-fun P7 () Bool)
(declare-fun P8 () Bool)
(declare-fun P9 () Bool)
(declare-fun P10 () Bool)
(declare-fun P11 () Bool)
(declare-fun P12 () Bool)
(declare-fun P13 () Bool)
(declare-fun P14 () Bool)
(declare-fun P15 () Bool)
(declare-fun P16 () Bool)
(declare-fun P17 () Bool)
(declare-fun P18 () Bool)
(declare-fun P19 () Bool)
(declare-fun P20 () Bool)
(declare-fun P21 () Bool)
(declare-fun P22 () Bool)
(declare-fun P23 () Bool)
(declare-fun P24 () Bool)
(declare-fun P25 () Bool)
(declare-fun P26 () Bool)
(declare-fun P27 () Bool)
(declare-fun P28 () Bool)
(declare-fun P29 () Bool)
(assert (let ((?v_90 (* 13 x16)) (?v_50 (<= (+ (- (* 26 x5) (* 9 x23)) (* 31 x6)) 7)) (?v_101 (= (- (+ (* 6 x20) (* 6 x15)) (* 42 x8)) 10)) (?v_35 (<= (- (- (* 22 x21) (* 30 x8)) (* 17 x16)) 15)) (?v_16 (= (- (- (* 23 x27) (* 41 x18)) (* 5 x20)) 0)) (?v_110 (< (- (+ (* 36 x15) (* 6 x29)) (* 24 x23)) 37)) (?v_36 (f0_1 x23))) (let ((?v_100 (= (f0_1 x18) ?v_36)) (?v_48 (distinct x27 ?v_36)) (?v_46 (f0_1 x1))) (let ((?v_92 (distinct ?v_46 (f0_2 x2 x11))) (?v_8 (f0_1 x21))) (let ((?v_58 (distinct ?v_8 x14)) (?v_108 (distinct (f0_1 x8) (f0_1 x4))) (?v_41 (= (f0_2 x2 x2) (f0_1 x0))) (?v_27 (distinct ?v_46 x22)) (?v_99 (distinct (f0_2 x11 x15) (f0_2 x6 x26))) (?v_137 (= x8 x25)) (?v_55 (= ?v_36 (f0_2 x24 x13))) (?v_57 (= (f0_2 x2 x18) x4)) (?v_104 (= x9 x22)) (?v_17 (f0_2 x9 x5))) (let ((?v_135 (= ?v_17 (f0_2 x18 x23))) (?v_5 (= x10 x8)) (?v_9 (f0_1 x22))) (let ((?v_67 (distinct (f0_2 x22 x15) ?v_9)) (?v_59 (distinct ?v_9 (f0_2 x7 x29))) (?v_22 (distinct (f0_2 x23 x8) x17)) (?v_21 (distinct x28 x20)) (?v_114 (distinct (f0_2 x21 x12) (f0_2 x5 x12))) (?v_40 (= x3 (f0_2 x28 x4))) (?v_53 (distinct (f0_2 x14 x29) (f0_1 x6))) (?v_102 (= x16 (f0_2 x8 x20))) (?v_107 (= (f0_1 x9) x23)) (?v_1 (distinct x20 x7)) (?v_13 (distinct x9 ?v_8)) (?v_43 (distinct (f0_2 x7 x3) (f0_2 x11 x2))) (?v_136 (distinct ?v_9 ?v_17)) (?v_93 (distinct (f0_2 x3 x0) x19)) (?v_11 (= (f0_2 x17 x12) (f0_2 x17 x24))) (?v_15 (distinct x5 (f0_2 x15 x2)))) (let ((?v_7 (not ?v_107)) (?v_71 (not ?v_5)) (?v_23 (not P1)) (?v_4 (not P3)) (?v_25 (not P20)) (?v_3 (not ?v_110)) (?v_12 (not P9)) (?v_20 (not P2)) (?v_65 (not P22)) (?v_37 (not ?v_102)) (?v_29 (not P16)) (?v_125 (not ?v_21)) (?v_74 (not ?v_99)) (?v_117 (not ?v_136)) (?v_64 (not ?v_108)) (?v_42 (not ?v_58)) (?v_52 (not P27)) (?v_105 (not ?v_41)) (?v_103 (not P21)) (?v_109 (not ?v_11)) (?v_155 (not ?v_13)) (?v_33 (not ?v_93)) (?v_60 (not ?v_135)) (?v_69 (not P4)) (?v_34 (not P29)) (?v_68 (not ?v_22)) (?v_89 (not ?v_1)) (?v_131 (not P10)) (?v_62 (not ?v_43)) (?v_96 (not P25)) (?v_118 (not ?v_114)) (?v_49 (not P18)) (?v_95 (not ?v_53)) (?v_116 (not ?v_35)) (?v_86 (not ?v_100)) (?v_94 (not ?v_40)) (?v_81 (not P6)) (?v_76 (not P0)) (?v_112 (not ?v_137)) (?v_124 (not ?v_92)) (?v_80 (not ?v_50)) (?v_83 (not P11)) (?v_144 (not ?v_55)) (?v_132 (not P12)) (?v_129 (not P14)) (?v_120 (not ?v_59)) (?v_82 (not P26)) (?v_79 (not ?v_67)) (?v_145 (not P17)) (?v_126 (not ?v_48)) (?v_75 (not P24)) (?v_85 (not ?v_57)) (?v_133 (not P7)) (?v_91 (not P19)) (?v_149 (not P13)) (?v_146 (not ?v_101)) (?v_134 (not ?v_104)) (?v_142 (not ?v_27)) (?v_121 (not ?v_15)) (?v_130 (not P8)) (?v_140 (not P15)) (?v_147 (not ?v_16)) (?v_150 (not P23)) (?v_143 (not P5)) (?v_0 (< (- (- (* 6 x14) (* 19 x19)) x22) 3)) (?v_87 (< (+ (* 20 x28) (* 16 x21) (* 42 x12)) 34))) (let ((?v_19 (not ?v_87)) (?v_26 (< (+ (* 14 x23) (* 29 x22) (* 40 x25)) 7))) (let ((?v_98 (not ?v_26)) (?v_88 (distinct (- (+ (* 40 x29) x13) (* 26 x16)) 8))) (let ((?v_119 (not ?v_88)) (?v_113 (not ?v_0)) (?v_2 (< (+ (* (- 42) x7) (* 7 x12) (* 42 x16)) 14)) (?v_39 (= (+ (* (- 19) x26) (* 18 x16) (* 34 x28)) 43))) (let ((?v_84 (not ?v_39)) (?v_18 (= (- (- (* (- 9) x11) (* 34 x26)) (* 42 x17)) (- 13))) (?v_152 (not ?v_2)) (?v_30 (< (+ (- (* (- 5) x0) (* 3 x23)) (* 24 x1)) (- 27))) (?v_10 (< (+ (* 10 x26) (* 36 x20) (* 31 x1)) (- 33)))) (let ((?v_6 (not ?v_10)) (?v_73 (<= (- (- (* (- 29) x10) (* 15 x14)) (* 10 x14)) (- 7)))) (let ((?v_77 (not ?v_73)) (?v_24 (<= (- (+ (* (- 40) x10) (* 13 x1)) (* 42 x24)) (- 8)))) (let ((?v_138 (not ?v_24)) (?v_151 (<= (- (+ (* 13 x15) (* 11 x19)) 0) (- 16)))) (let ((?v_139 (not ?v_151)) (?v_32 (<= (- (- (* 9 x13) (* 41 x6)) (* 42 x6)) (- 27))) (?v_31 (* (- 25) x16))) (let ((?v_47 (< (- (- ?v_31 (* 16 x10)) (* 13 x28)) (- 24)))) (let ((?v_14 (not ?v_47)) (?v_78 (<= (+ (- (* (- 39) x8) (* 6 x1)) (* 31 x13)) 26))) (let ((?v_72 (not ?v_78)) (?v_63 (<= (+ (* (- 22) x4) (* 17 x14) (* 32 x10)) (- 11))) (?v_56 (< (- (+ (* (- 37) x0) ?v_90) (* 41 x27)) 18))) (let ((?v_28 (not ?v_56)) (?v_128 (<= (+ (* (- 27) x22) (* 15 x23) (* 36 x22)) 17))) (let ((?v_70 (not ?v_128)) (?v_44 (<= (- (+ ?v_31 (* 13 x18)) x9) (- 34))) (?v_97 (< (+ (* (- 21) x22) (* 2 x2) (* 15 x11)) (- 41)))) (let ((?v_45 (not ?v_97)) (?v_61 (<= (+ (- (* (- 42) x19) (* 37 x18)) (* 21 x5)) (- 6)))) (let ((?v_38 (not ?v_61)) (?v_66 (<= (- (+ (* 33 x2) (* 36 x25)) x26) (- 14)))) (let ((?v_54 (not ?v_66)) (?v_51 (= (+ (- (* (- 8) x11) (* 42 x10)) (* 24 x29)) (- 34))) (?v_122 (not ?v_44)) (?v_123 (< (+ (* (- 14) x10) (* 29 x14) (* 32 x13)) 11))) (let ((?v_141 (not ?v_123)) (?v_106 (not ?v_63)) (?v_115 (not ?v_30)) (?v_111 (< (+ ?v_90 (* 37 x10) x27) (- 38)))) (let ((?v_127 (not ?v_111)) (?v_153 (not ?v_18)) (?v_148 (not ?v_51)) (?v_154 (not ?v_32))) (and (and (and (and (and (and (and (and (and (and (and (and (and (and (and (and (and (and (and (and (and (and (and (and (and (and (and (and (and (and (and (and (and (and (and (and (and (and (and (and (and (and (and (and (and (and (and (and (and (and (and (and (and (and (and (and (and (and (and (and (and (and (and (and (and (and (and (and (and (and (and (and (and (and (and (and (and (and (and (and (and (and (and (and (and (and (and (and (and (and (and (and (and (and (and (and (and (and (and (and (and (and (and (and (and (and (and (and (and (and (and (and (and (and (and (and (and (and (and (and (and (and (and (and (and (and (and (and (and (and (and (and (and (and (and (and (and (and (and (and (and (and (and (and (and (and (and (and (and (and (and (and (and (and (and (and (and (and (and (and (and (and (and (and (and (and (and (and (and (and (and (and (and (and (and (and (and (and (and (and (and (and (and (and (and (and (and (and (and (and (and (and (and (and (and (and (and (and (and (and (and (and (and (and (and (and (and (and (and (and (and (and (and (and (and (and (and (and (and (and (and (and (and (and (and (and (and (and (and (and (and (and (and (and (and (and (and (and (and (and (and (and (and (and (and (and (and (and (and (and (and (and (and (and (and (and (and (and (and (and (and (and (and (and (and (and (and (and (and (and (and (and (and (and (and (and (and (and (and (and (and (and (and (and (and (and (and (and (and (and (and (and (and (and (and (and (and (and (and (and (and (and (and (and (and (and (and (and (and (and (and (and (and (and (and (and (and (and (and (and (and (and (and (and (and (and (and (and (and (and (and (and (and (and (and (and (and (and (and (and (and (and (and (and (and (and (and (and (and (and (and (and (and (and (and (and (and (and (and (or (or ?v_7 ?v_71) P24) (or (or ?v_2 ?v_1) ?v_23)) (or (or ?v_0 P23) ?v_4)) (or (or ?v_25 ?v_84) ?v_15)) (or (or ?v_57 ?v_11) P9)) (or (or P16 ?v_18) P5)) (or (or ?v_3 ?v_0) ?v_12)) (or (or ?v_1 P15) ?v_152)) (or (or ?v_20 ?v_65) ?v_30)) (or (or ?v_37 ?v_19) ?v_6)) (or (or ?v_29 ?v_22) ?v_3)) (or (or P5 ?v_125) ?v_74)) (or (or P11 ?v_77) ?v_138)) (or (or ?v_4 ?v_139) ?v_117)) (or (or ?v_13 ?v_64) ?v_5)) (or (or ?v_32 P27) ?v_6)) (or (or ?v_4 P23) ?v_7)) (or (or ?v_42 P15) ?v_3)) (or (or ?v_52 ?v_40) P7)) (or (or ?v_59 ?v_105) ?v_10)) (or (or ?v_103 ?v_109) ?v_14)) (or (or P12 ?v_5) ?v_12)) (or (or ?v_1 ?v_155) ?v_14)) (or (or ?v_15 ?v_33) P29)) (or (or ?v_16 P1) P5)) (or (or ?v_16 ?v_60) ?v_98)) (or (or ?v_12 ?v_69) ?v_50)) (or (or ?v_7 P21) ?v_18)) (or (or ?v_19 ?v_34) P2)) (or (or P10 ?v_20) P18)) (or (or ?v_21 ?v_68) ?v_89)) (or (or P22 ?v_23) ?v_20)) (or (or ?v_48 ?v_12) ?v_24)) (or (or ?v_27 P19) ?v_72)) (or (or ?v_63 P16) P12)) (or (or ?v_25 ?v_11) P12)) (or (or ?v_26 ?v_27) ?v_28)) (or (or P5 P27) ?v_131)) (or (or P10 P3) ?v_28)) (or (or ?v_62 ?v_96) ?v_70)) (or (or ?v_29 P20) ?v_28)) (or (or P8 P28) ?v_118)) (or (or ?v_30 ?v_44) ?v_32)) (or (or ?v_33 ?v_34) ?v_35)) (or (or P7 ?v_49) ?v_27)) (or (or ?v_95 ?v_26) P6)) (or (or ?v_116 ?v_45) ?v_55)) (or (or P17 ?v_37) ?v_86)) (or (or ?v_13 P21) ?v_38)) (or (or ?v_38 ?v_54) ?v_39)) (or (or ?v_94 ?v_81) P22)) (or (or ?v_41 ?v_42) ?v_51)) (or (or ?v_35 ?v_0) ?v_43)) (or (or ?v_76 ?v_41) P25)) (or (or ?v_67 ?v_122) ?v_45)) (or (or P5 ?v_112) ?v_23)) (or (or ?v_124 ?v_47) ?v_25)) (or (or ?v_48 ?v_49) ?v_80)) (or (or ?v_141 ?v_51) ?v_52)) (or (or ?v_53 ?v_54) P3)) (or (or ?v_83 ?v_144) ?v_43)) (or (or ?v_2 ?v_3) ?v_54)) (or (or ?v_132 ?v_56) ?v_57)) (or (or ?v_38 ?v_129) ?v_35)) (or (or ?v_58 ?v_120) ?v_60)) (or (or ?v_29 ?v_40) P20)) (or (or ?v_61 ?v_62) ?v_106)) (or (or ?v_64 ?v_33) ?v_48)) (or (or ?v_65 ?v_66) ?v_44)) (or (or ?v_82 ?v_24) ?v_15)) (or (or P23 ?v_79) ?v_13)) (or (or P14 ?v_68) ?v_69)) (or (or ?v_33 (not P28)) ?v_34)) (or (or ?v_12 ?v_145) ?v_19)) (or (or P0 ?v_30) ?v_42)) (or (or ?v_48 P3) ?v_70)) (or (or ?v_3 ?v_14) ?v_126)) (or (or ?v_71 ?v_72) ?v_75)) (or (or ?v_115 ?v_88) ?v_73)) (or (or ?v_74 ?v_28) ?v_75)) (or (or P18 ?v_104) ?v_76)) (or (or ?v_41 ?v_12) ?v_27)) (or (or ?v_62 P7) P9)) (or (or ?v_14 ?v_4) ?v_1)) (or (or ?v_77 ?v_78) ?v_79)) (or (or ?v_80 ?v_81) ?v_22)) (or (or ?v_82 P1) P28)) (or (or ?v_83 ?v_24) ?v_85)) (or (or ?v_49 ?v_18) P13)) (or (or ?v_81 ?v_81) ?v_133)) (or (or P27 P17) ?v_33)) (or (or ?v_84 ?v_85) ?v_47)) (or (or ?v_45 P27) ?v_86)) (or (or P29 ?v_87) ?v_119)) (or (or ?v_91 ?v_54) ?v_22)) (or (or ?v_69 P17) ?v_38)) (or (or ?v_89 ?v_78) ?v_76)) (or (or ?v_111 ?v_91) ?v_56)) (or (or ?v_149 ?v_14) P0)) (or (or P24 ?v_85) ?v_92)) (or (or ?v_26 ?v_93) ?v_57)) (or (or ?v_70 P8) ?v_0)) (or (or ?v_20 P7) ?v_30)) (or (or ?v_66 ?v_27) ?v_0)) (or (or ?v_50 ?v_83) ?v_25)) (or (or ?v_40 ?v_94) ?v_95)) (or (or ?v_96 ?v_74) ?v_146)) (or (or P9 P22) ?v_21)) (or (or ?v_6 ?v_57) P25)) (or (or ?v_58 ?v_44) ?v_86)) (or (or ?v_97 ?v_75) ?v_83)) (or (or ?v_98 ?v_49) P9)) (or (or P19 ?v_59) ?v_11)) (or (or ?v_99 ?v_99) P14)) (or (or ?v_100 ?v_87) ?v_62)) (or (or ?v_101 P7) ?v_102)) (or (or P2 ?v_103) ?v_134)) (or (or ?v_113 ?v_98) ?v_142)) (or (or ?v_96 P24) ?v_18)) (or (or ?v_105 ?v_55) ?v_68)) (or (or P29 ?v_60) ?v_2)) (or (or ?v_106 ?v_71) ?v_107)) (or (or ?v_108 ?v_109) ?v_68)) (or (or P14 ?v_121) ?v_88)) (or (or ?v_110 ?v_111) ?v_93)) (or (or ?v_112 P22) ?v_75)) (or (or ?v_88 ?v_52) ?v_96)) (or (or ?v_24 ?v_94) ?v_38)) (or (or ?v_45 ?v_39) P0)) (or (or ?v_113 ?v_22) ?v_38)) (or (or ?v_19 ?v_114) ?v_56)) (or (or ?v_2 ?v_12) ?v_73)) (or (or P20 ?v_62) ?v_115)) (or (or ?v_116 ?v_98) ?v_117)) (or (or ?v_100 ?v_5) ?v_21)) (or (or ?v_87 ?v_94) ?v_32)) (or (or P8 ?v_39) ?v_7)) (or (or ?v_62 ?v_65) ?v_26)) (or (or P24 P10) ?v_115)) (or (or ?v_30 ?v_63) P3)) (or (or ?v_81 ?v_94) ?v_12)) (or (or ?v_74 ?v_50) ?v_2)) (or (or ?v_82 ?v_108) ?v_66)) (or (or ?v_118 ?v_74) ?v_119)) (or (or ?v_79 ?v_130) ?v_13)) (or (or ?v_52 ?v_81) ?v_4)) (or (or ?v_81 ?v_11) ?v_50)) (or (or ?v_42 ?v_120) ?v_104)) (or (or ?v_112 ?v_30) ?v_121)) (or (or ?v_85 ?v_78) ?v_99)) (or (or ?v_127 P2) ?v_122)) (or (or ?v_123 ?v_14) ?v_94)) (or (or ?v_60 P18) ?v_47)) (or (or ?v_124 P17) ?v_101)) (or (or ?v_42 ?v_112) ?v_34)) (or (or ?v_118 ?v_88) ?v_56)) (or (or ?v_101 ?v_123) ?v_125)) (or (or ?v_82 ?v_1) ?v_126)) (or (or ?v_53 ?v_127) ?v_6)) (or (or ?v_119 P25) ?v_32)) (or (or P2 P12) ?v_74)) (or (or ?v_128 ?v_57) P23)) (or (or ?v_105 P26) ?v_129)) (or (or P17 ?v_64) ?v_73)) (or (or ?v_115 ?v_0) ?v_47)) (or (or ?v_14 ?v_106) ?v_28)) (or (or ?v_19 P2) ?v_64)) (or (or ?v_45 ?v_130) P14)) (or (or ?v_102 ?v_33) ?v_122)) (or (or ?v_24 ?v_6) ?v_33)) (or (or P7 ?v_153) ?v_91)) (or (or ?v_44 ?v_50) P29)) (or (or ?v_44 ?v_48) ?v_67)) (or (or P29 ?v_43) ?v_3)) (or (or ?v_131 ?v_125) ?v_35)) (or (or ?v_132 ?v_3) ?v_133)) (or (or ?v_67 ?v_107) ?v_131)) (or (or ?v_108 ?v_66) ?v_92)) (or (or ?v_119 P24) ?v_140)) (or (or ?v_64 ?v_25) ?v_134)) (or (or P20 ?v_104) P6)) (or (or ?v_129 ?v_71) ?v_27)) (or (or ?v_50 P21) ?v_108)) (or (or ?v_135 P26) ?v_117)) (or (or ?v_109 ?v_22) ?v_58)) (or (or P16 ?v_103) ?v_108)) (or (or ?v_52 ?v_136) ?v_147)) (or (or ?v_68 ?v_77) ?v_132)) (or (or P20 ?v_27) ?v_134)) (or (or P2 ?v_12) P16)) (or (or ?v_15 ?v_150) ?v_137)) (or (or ?v_44 ?v_47) ?v_27)) (or (or ?v_93 ?v_49) P7)) (or (or P8 ?v_85) ?v_25)) (or (or ?v_34 ?v_116) ?v_14)) (or (or ?v_120 ?v_79) ?v_87)) (or (or P28 ?v_68) P14)) (or (or ?v_138 ?v_86) P24)) (or (or ?v_5 P20) ?v_94)) (or (or ?v_26 P9) ?v_111)) (or (or ?v_56 ?v_114) ?v_125)) (or (or ?v_139 P11) P13)) (or (or ?v_75 ?v_91) ?v_32)) (or (or ?v_13 ?v_148) ?v_106)) (or (or ?v_28 ?v_22) P4)) (or (or ?v_29 ?v_102) ?v_11)) (or (or ?v_38 ?v_59) ?v_55)) (or (or ?v_139 ?v_4) ?v_59)) (or (or ?v_69 ?v_98) ?v_10)) (or (or ?v_127 ?v_56) ?v_13)) (or (or ?v_143 ?v_124) ?v_40)) (or (or P17 ?v_140) P19)) (or (or ?v_40 ?v_66) P26)) (or (or ?v_88 ?v_100) ?v_101)) (or (or ?v_70 ?v_105) P8)) (or (or ?v_141 ?v_142) ?v_82)) (or (or ?v_38 ?v_132) ?v_30)) (or (or ?v_128 ?v_110) ?v_35)) (or (or P17 ?v_59) ?v_99)) (or (or ?v_87 ?v_93) ?v_143)) (or (or ?v_6 ?v_126) P1)) (or (or ?v_14 ?v_16) ?v_144)) (or (or ?v_14 ?v_7) ?v_124)) (or (or ?v_145 ?v_106) ?v_104)) (or (or ?v_141 ?v_12) ?v_30)) (or (or ?v_146 ?v_104) ?v_33)) (or (or ?v_138 ?v_146) ?v_63)) (or (or ?v_139 ?v_147) ?v_125)) (or (or ?v_99 ?v_66) P14)) (or (or ?v_83 ?v_69) ?v_57)) (or (or P22 ?v_91) ?v_120)) (or (or ?v_124 ?v_49) P20)) (or (or P21 ?v_148) ?v_70)) (or (or ?v_27 ?v_37) ?v_122)) (or (or ?v_121 ?v_63) ?v_72)) (or (or ?v_26 ?v_128) P0)) (or (or ?v_60 ?v_65) ?v_142)) (or (or ?v_95 ?v_52) ?v_57)) (or (or P5 ?v_41) P13)) (or (or ?v_131 ?v_144) ?v_15)) (or (or ?v_39 ?v_144) ?v_110)) (or (or ?v_50 ?v_57) ?v_43)) (or (or ?v_16 ?v_24) ?v_112)) (or (or ?v_105 P9) ?v_4)) (or (or ?v_33 P29) ?v_149)) (or (or ?v_55 ?v_135) ?v_106)) (or (or ?v_40 ?v_141) ?v_106)) (or (or ?v_20 ?v_22) ?v_59)) (or (or P11 ?v_13) ?v_139)) (or (or ?v_23 ?v_40) ?v_35)) (or (or ?v_149 ?v_60) ?v_41)) (or (or ?v_27 ?v_65) ?v_43)) (or (or ?v_67 ?v_112) P17)) (or (or ?v_91 ?v_116) ?v_147)) (or (or ?v_135 ?v_7) ?v_52)) (or (or P27 ?v_34) ?v_110)) (or (or ?v_33 ?v_125) ?v_54)) (or (or ?v_77 ?v_61) ?v_21)) (or (or ?v_53 ?v_29) ?v_150)) (or (or ?v_10 ?v_20) P10)) (or (or ?v_105 ?v_140) P12)) (or (or ?v_141 ?v_73) ?v_115)) (or (or ?v_71 ?v_89) ?v_154)) (or (or ?v_151 P8) P18)) (or (or ?v_139 ?v_77) P1)) (or (or ?v_76 ?v_114) P10)) (or (or ?v_69 ?v_81) P0)) (or (or ?v_60 ?v_2) ?v_69)) (or (or ?v_120 ?v_67) ?v_6)) (or (or ?v_86 ?v_64) ?v_148)) (or (or ?v_146 ?v_44) P24)) (or (or ?v_143 ?v_4) ?v_13)) (or (or ?v_147 ?v_148) P20)) (or (or ?v_129 ?v_97) ?v_83)) (or (or ?v_111 ?v_106) ?v_138)) (or (or ?v_55 ?v_37) ?v_71)) (or (or ?v_77 ?v_89) ?v_105)) (or (or ?v_64 ?v_128) ?v_60)) (or (or ?v_51 ?v_40) ?v_99)) (or (or P18 ?v_29) ?v_72)) (or (or ?v_38 ?v_89) ?v_4)) (or (or ?v_55 ?v_71) ?v_152)) (or (or ?v_54 ?v_148) ?v_56)) (or (or ?v_74 ?v_80) ?v_114)) (or (or P13 ?v_94) ?v_44)) (or (or ?v_6 ?v_118) P29)) (or (or ?v_86 ?v_54) ?v_145)) (or (or ?v_82 ?v_135) ?v_42)) (or (or ?v_127 ?v_0) ?v_45)) (or (or ?v_145 ?v_61) ?v_146)) (or (or ?v_51 ?v_136) ?v_11)) (or (or ?v_126 ?v_122) ?v_151)) (or (or ?v_153 ?v_15) ?v_93)) (or (or ?v_74 ?v_57) ?v_83)) (or (or ?v_70 P26) ?v_55)) (or (or ?v_14 ?v_154) ?v_13)) (or (or P1 P11) ?v_38)) (or (or ?v_70 ?v_5) ?v_40)) (or (or P17 P2) ?v_148)) (or (or ?v_116 ?v_7) ?v_87)) (or (or P27 ?v_82) ?v_53)) (or (or ?v_27 ?v_152) ?v_119)) (or (or ?v_117 ?v_41) ?v_121)) (or (or ?v_110 ?v_107) ?v_20)) (or (or ?v_80 ?v_30) P17)) (or (or ?v_113 ?v_74) P9)) (or (or ?v_134 ?v_101) ?v_6)) (or (or ?v_4 ?v_114) ?v_38)) (or (or ?v_106 ?v_4) ?v_139)) (or (or P3 ?v_48) ?v_43)) (or (or ?v_96 ?v_54) ?v_133)) (or (or ?v_35 ?v_141) ?v_105)) (or (or P28 ?v_40) ?v_25)) (or (or ?v_58 P3) ?v_133)) (or (or ?v_137 ?v_154) ?v_85)) (or (or P3 ?v_5) ?v_105)) (or (or P8 ?v_58) ?v_75)) (or (or ?v_130 ?v_110) ?v_57)) (or (or ?v_37 ?v_54) ?v_7)) (or (or ?v_72 P4) ?v_138)) (or (or P1 ?v_115) ?v_32)) (or (or ?v_150 ?v_154) ?v_120)) (or (or P4 ?v_81) ?v_87)) (or (or ?v_133 ?v_83) ?v_139)) (or (or ?v_45 P26) ?v_115)) (or (or P1 ?v_154) P29)) (or (or ?v_127 ?v_54) ?v_38)) (or (or ?v_53 ?v_123) P8)) (or (or P1 ?v_78) ?v_140)) (or (or ?v_6 ?v_116) ?v_95)) (or (or ?v_16 P4) ?v_112)) (or (or ?v_141 ?v_113) ?v_23)) (or (or ?v_132 ?v_135) ?v_98)) (or (or ?v_136 ?v_12) P13)) (or (or ?v_11 ?v_30) ?v_74)) (or (or ?v_84 P18) ?v_85)) (or (or ?v_135 ?v_142) ?v_13)) (or (or ?v_133 ?v_54) ?v_99)) (or (or ?v_21 P24) P28)) (or (or ?v_55 ?v_149) ?v_41)) (or (or P17 ?v_139) ?v_39)) (or (or ?v_150 ?v_5) P21)) (or (or ?v_113 P16) ?v_128)) (or (or ?v_62 ?v_101) ?v_55)) (or (or ?v_93 ?v_73) ?v_20)) (or (or ?v_43 P25) ?v_70)) (or (or ?v_18 P28) ?v_6)) (or (or P0 ?v_32) ?v_97)) (or (or ?v_121 ?v_22) ?v_101)) (or (or ?v_2 ?v_127) ?v_69)) (or (or ?v_42 ?v_16) ?v_108)) (or (or ?v_94 ?v_22) P23)) (or (or ?v_73 ?v_35) ?v_53)) (or (or ?v_87 ?v_25) ?v_18)) (or (or ?v_148 ?v_30) ?v_143)) (or (or ?v_37 ?v_87) ?v_141)) (or (or ?v_97 ?v_112) ?v_0)) (or (or ?v_137 ?v_75) P19)) (or (or ?v_0 ?v_155) P29)) (or (or ?v_50 P19) ?v_16))))))))))))))))))))))))))))
(check-sat)
(exit)
